NAME : 10_3_3_2_(23).dat
COMMENT : Henke, Speranza, Wäscher, 2015
TYPE : MCVRP
DIMENSION : 11
EDGE_WEIGHT_TYPE : DISTANCE_MATRIX
CAPACITY : 1000
VEHICLES : 3
PRODUCT TYPES : 3
COMPARTMENTS : 3
NODE_COORD_SECTION
1 50 50
2 10.16 48.62
3 30.54 6.77
4 17.21 93.81
5 72.84 53.74
6 15.2 52.63
7 25.29 14.19
8 88.45 45.02
9 34.58 15.39
10 23.2 99.79
11 9.35 36.1
DEMAND_SECTION
1 0 0 0
2 40 126 0
3 36 0 59
4 74 110 0
5 37 0 105
6 139 0 21
7 107 0 100
8 24 63 0
9 143 23 0
10 39 0 23
11 132 141 0
DEPOT_SECTION
1
EOF